17	4
36	29	45	31	
0	0	0	0	0	3	2	3	4	
7	9	4	8	9	1	5	
4	0	0	3	0	3	6	8	17	
4	2	0	0	0	3	9	11	17	
5	10	9	5	3	3	7	17	17	
50	0	0	0	10	2	15	17	
25	8	0	0	0	1	14	
175	0	10	8	0	1	17	
75	3	10	0	5	1	10	
175	7	0	0	0	1	17	
150	5	0	9	7	2	12	17	
200	0	0	1	6	3	13	17	17	
3	10	0	0	0	1	16	
1	7	10	6	0	2	17	17	
8	4	2	10	0	2	17	17	
5	1	0	0	0	1	17	
0	0	0	0	0	0	
